problems/problems/cplex/D1.S1.T2_4.dat
M = 99999999.0;
numWorkers = 15;
numRoles = 5;
numNodes = 40;
wStart = [0, 0, 0, 0, 0, 0, 0, 0, 0, 0, 0, 0, 0, 0, 0, 210, 60, 60, 120, 240, 90, 90, 120, 60, 240, 480, 480, 480, 480, 480, 480, 480, 480, 480, 480, 480, 480, 480, 480, 480];
wEnd = [0, 0, 0, 0, 0, 0, 0, 0, 0, 0, 0, 0, 0, 0, 0, 390, 450, 390, 360, 330, 390, 180, 180, 360, 300, 480, 480, 480, 480, 480, 480, 480, 480, 480, 480, 480, 480, 480, 480, 480];
p = [0, 0, 0, 0, 0, 0, 0, 0, 0, 0, 0, 0, 0, 0, 0, 56.35181207273667, 40.966667594121475, 47.24473662381106, 62.98391342932704, 74.54551092628502, 43.869165142092704, 74.38869095957409, 66.00836417349078, 38.25366913329181, 44.212995640224534, 0, 0, 0, 0, 0, 0, 0, 0, 0, 0, 0, 0, 0, 0, 0];
e = [[0, 1, 1, 0, 0], [1, 1, 0, 0, 0], [0, 0, 0, 1, 0], [0, 0, 0, 0, 1], [0, 1, 0, 0, 0], [0, 1, 0, 0, 0], [0, 0, 1, 0, 0], [1, 0, 0, 0, 0], [0, 0, 0, 0, 1], [0, 0, 0, 0, 1], [1, 0, 0, 0, 0], [0, 0, 0, 1, 0], [1, 0, 0, 0, 0], [0, 0, 0, 1, 0], [0, 0, 1, 0, 0]];
d = [[0, 1, 1, 0, 1, 1, 1, 1, 1, 1], [0, 1, 1, 0, 1, 1, 1, 1, 1, 1], [1, 0, 0, 1, 2, 2, 0, 1, 1, 0], [1, 0, 0, 1, 0, 0, 0, 1, 1, 0], [1, 3, 3, 1, 0, 0, 3, 0, 0, 3]];
r = [4986, 2897, 3754, 3112, 2995, 4297, 1054, 1568, 3479, 2107];
g = [[0, 0, 0, 0, 0, 0, 0, 0, 0, 0], [0, 0, 0, 0, 0, 0, 0, 0, 0, 0], [0, 0, 0, 0, 0, 0, 0, 0, 0, 0], [0, 0, 0, 0, 0, 0, 0, 0, 0, 0], [0, 0, 0, 0, 0, 0, 0, 0, 0, 0], [0, 0, 0, 0, 0, 0, 0, 0, 0, 0], [0, 0, 0, 0, 0, 0, 0, 0, 0, 0], [0, 0, 0, 0, 0, 0, 0, 0, 0, 0], [0, 0, 0, 0, 0, 0, 0, 0, 0, 0], [0, 0, 0, 0, 0, 0, 0, 0, 0, 0]];
t = [[0.0, 0.0, 0.0, 0.0, 0.0, 0.0, 0.0, 0.0, 0.0, 0.0, 0.0, 0.0, 0.0, 0.0, 0.0, 52.8122401586602, 18.23768771308545, 48.499452320695724, 60.0, 50.40033834507564, 23.1063041032754, 44.925374637423914, 35.15915330161406, 38.83456211551262, 21.6478911989471, 0.0, 0.0, 0.0, 0.0, 0.0, 0.0, 0.0, 0.0, 0.0, 0.0, 0.0, 0.0, 0.0, 0.0, 0.0], [0.0, 0.0, 0.0, 0.0, 0.0, 0.0, 0.0, 0.0, 0.0, 0.0, 0.0, 0.0, 0.0, 0.0, 0.0, 52.8122401586602, 18.23768771308545, 48.499452320695724, 60.0, 50.40033834507564, 23.1063041032754, 44.925374637423914, 35.15915330161406, 38.83456211551262, 21.6478911989471, 0.0, 0.0, 0.0, 0.0, 0.0, 0.0, 0.0, 0.0, 0.0, 0.0, 0.0, 0.0, 0.0, 0.0, 0.0], [0.0, 0.0, 0.0, 0.0, 0.0, 0.0, 0.0, 0.0, 0.0, 0.0, 0.0, 0.0, 0.0, 0.0, 0.0, 52.8122401586602, 18.23768771308545, 48.499452320695724, 60.0, 50.40033834507564, 23.1063041032754, 44.925374637423914, 35.15915330161406, 38.83456211551262, 21.6478911989471, 0.0, 0.0, 0.0, 0.0, 0.0, 0.0, 0.0, 0.0, 0.0, 0.0, 0.0, 0.0, 0.0, 0.0, 0.0], [0.0, 0.0, 0.0, 0.0, 0.0, 0.0, 0.0, 0.0, 0.0, 0.0, 0.0, 0.0, 0.0, 0.0, 0.0, 52.8122401586602, 18.23768771308545, 48.499452320695724, 60.0, 50.40033834507564, 23.1063041032754, 44.925374637423914, 35.15915330161406, 38.83456211551262, 21.6478911989471, 0.0, 0.0, 0.0, 0.0, 0.0, 0.0, 0.0, 0.0, 0.0, 0.0, 0.0, 0.0, 0.0, 0.0, 0.0], [0.0, 0.0, 0.0, 0.0, 0.0, 0.0, 0.0, 0.0, 0.0, 0.0, 0.0, 0.0, 0.0, 0.0, 0.0, 52.8122401586602, 18.23768771308545, 48.499452320695724, 60.0, 50.40033834507564, 23.1063041032754, 44.925374637423914, 35.15915330161406, 38.83456211551262, 21.6478911989471, 0.0, 0.0, 0.0, 0.0, 0.0, 0.0, 0.0, 0.0, 0.0, 0.0, 0.0, 0.0, 0.0, 0.0, 0.0], [0.0, 0.0, 0.0, 0.0, 0.0, 0.0, 0.0, 0.0, 0.0, 0.0, 0.0, 0.0, 0.0, 0.0, 0.0, 52.8122401586602, 18.23768771308545, 48.499452320695724, 60.0, 50.40033834507564, 23.1063041032754, 44.925374637423914, 35.15915330161406, 38.83456211551262, 21.6478911989471, 0.0, 0.0, 0.0, 0.0, 0.0, 0.0, 0.0, 0.0, 0.0, 0.0, 0.0, 0.0, 0.0, 0.0, 0.0], [0.0, 0.0, 0.0, 0.0, 0.0, 0.0, 0.0, 0.0, 0.0, 0.0, 0.0, 0.0, 0.0, 0.0, 0.0, 52.8122401586602, 18.23768771308545, 48.499452320695724, 60.0, 50.40033834507564, 23.1063041032754, 44.925374637423914, 35.15915330161406, 38.83456211551262, 21.6478911989471, 0.0, 0.0, 0.0, 0.0, 0.0, 0.0, 0.0, 0.0, 0.0, 0.0, 0.0, 0.0, 0.0, 0.0, 0.0], [0.0, 0.0, 0.0, 0.0, 0.0, 0.0, 0.0, 0.0, 0.0, 0.0, 0.0, 0.0, 0.0, 0.0, 0.0, 52.8122401586602, 18.23768771308545, 48.499452320695724, 60.0, 50.40033834507564, 23.1063041032754, 44.925374637423914, 35.15915330161406, 38.83456211551262, 21.6478911989471, 0.0, 0.0, 0.0, 0.0, 0.0, 0.0, 0.0, 0.0, 0.0, 0.0, 0.0, 0.0, 0.0, 0.0, 0.0], [0.0, 0.0, 0.0, 0.0, 0.0, 0.0, 0.0, 0.0, 0.0, 0.0, 0.0, 0.0, 0.0, 0.0, 0.0, 52.8122401586602, 18.23768771308545, 48.499452320695724, 60.0, 50.40033834507564, 23.1063041032754, 44.925374637423914, 35.15915330161406, 38.83456211551262, 21.6478911989471, 0.0, 0.0, 0.0, 0.0, 0.0, 0.0, 0.0, 0.0, 0.0, 0.0, 0.0, 0.0, 0.0, 0.0, 0.0], [0.0, 0.0, 0.0, 0.0, 0.0, 0.0, 0.0, 0.0, 0.0, 0.0, 0.0, 0.0, 0.0, 0.0, 0.0, 52.8122401586602, 18.23768771308545, 48.499452320695724, 60.0, 50.40033834507564, 23.1063041032754, 44.925374637423914, 35.15915330161406, 38.83456211551262, 21.6478911989471, 0.0, 0.0, 0.0, 0.0, 0.0, 0.0, 0.0, 0.0, 0.0, 0.0, 0.0, 0.0, 0.0, 0.0, 0.0], [0.0, 0.0, 0.0, 0.0, 0.0, 0.0, 0.0, 0.0, 0.0, 0.0, 0.0, 0.0, 0.0, 0.0, 0.0, 52.8122401586602, 18.23768771308545, 48.499452320695724, 60.0, 50.40033834507564, 23.1063041032754, 44.925374637423914, 35.15915330161406, 38.83456211551262, 21.6478911989471, 0.0, 0.0, 0.0, 0.0, 0.0, 0.0, 0.0, 0.0, 0.0, 0.0, 0.0, 0.0, 0.0, 0.0, 0.0], [0.0, 0.0, 0.0, 0.0, 0.0, 0.0, 0.0, 0.0, 0.0, 0.0, 0.0, 0.0, 0.0, 0.0, 0.0, 52.8122401586602, 18.23768771308545, 48.499452320695724, 60.0, 50.40033834507564, 23.1063041032754, 44.925374637423914, 35.15915330161406, 38.83456211551262, 21.6478911989471, 0.0, 0.0, 0.0, 0.0, 0.0, 0.0, 0.0, 0.0, 0.0, 0.0, 0.0, 0.0, 0.0, 0.0, 0.0], [0.0, 0.0, 0.0, 0.0, 0.0, 0.0, 0.0, 0.0, 0.0, 0.0, 0.0, 0.0, 0.0, 0.0, 0.0, 52.8122401586602, 18.23768771308545, 48.499452320695724, 60.0, 50.40033834507564, 23.1063041032754, 44.925374637423914, 35.15915330161406, 38.83456211551262, 21.6478911989471, 0.0, 0.0, 0.0, 0.0, 0.0, 0.0, 0.0, 0.0, 0.0, 0.0, 0.0, 0.0, 0.0, 0.0, 0.0], [0.0, 0.0, 0.0, 0.0, 0.0, 0.0, 0.0, 0.0, 0.0, 0.0, 0.0, 0.0, 0.0, 0.0, 0.0, 52.8122401586602, 18.23768771308545, 48.499452320695724, 60.0, 50.40033834507564, 23.1063041032754, 44.925374637423914, 35.15915330161406, 38.83456211551262, 21.6478911989471, 0.0, 0.0, 0.0, 0.0, 0.0, 0.0, 0.0, 0.0, 0.0, 0.0, 0.0, 0.0, 0.0, 0.0, 0.0], [0.0, 0.0, 0.0, 0.0, 0.0, 0.0, 0.0, 0.0, 0.0, 0.0, 0.0, 0.0, 0.0, 0.0, 0.0, 52.8122401586602, 18.23768771308545, 48.499452320695724, 60.0, 50.40033834507564, 23.1063041032754, 44.925374637423914, 35.15915330161406, 38.83456211551262, 21.6478911989471, 0.0, 0.0, 0.0, 0.0, 0.0, 0.0, 0.0, 0.0, 0.0, 0.0, 0.0, 0.0, 0.0, 0.0, 0.0], [52.8122401586602, 52.8122401586602, 52.8122401586602, 52.8122401586602, 52.8122401586602, 52.8122401586602, 52.8122401586602, 52.8122401586602, 52.8122401586602, 52.8122401586602, 52.8122401586602, 52.8122401586602, 52.8122401586602, 52.8122401586602, 52.8122401586602, 0.0, 39.17475767951687, 10.70947617762059, 14.741747990191358, 25.500966982547897, 29.769430990725006, 14.485106706464455, 18.0489607681342, 35.41009641233051, 32.890504036675246, 52.8122401586602, 52.8122401586602, 52.8122401586602, 52.8122401586602, 52.8122401586602, 52.8122401586602, 52.8122401586602, 52.8122401586602, 52.8122401586602, 52.8122401586602, 52.8122401586602, 52.8122401586602, 52.8122401586602, 52.8122401586602, 52.8122401586602], [18.23768771308545, 18.23768771308545, 18.23768771308545, 18.23768771308545, 18.23768771308545, 18.23768771308545, 18.23768771308545, 18.23768771308545, 18.23768771308545, 18.23768771308545, 18.23768771308545, 18.23768771308545, 18.23768771308545, 18.23768771308545, 18.23768771308545, 39.17475767951687, 0.0, 38.052019539855756, 43.53061475547512, 32.320858021225305, 12.10985948581212, 35.6745804921871, 24.07424393699848, 38.89875424333681, 17.87826463493427, 18.23768771308545, 18.23768771308545, 18.23768771308545, 18.23768771308545, 18.23768771308545, 18.23768771308545, 18.23768771308545, 18.23768771308545, 18.23768771308545, 18.23768771308545, 18.23768771308545, 18.23768771308545, 18.23768771308545, 18.23768771308545, 18.23768771308545], [48.499452320695724, 48.499452320695724, 48.499452320695724, 48.499452320695724, 48.499452320695724, 48.499452320695724, 48.499452320695724, 48.499452320695724, 48.499452320695724, 48.499452320695724, 48.499452320695724, 48.499452320695724, 48.499452320695724, 48.499452320695724, 48.499452320695724, 10.70947617762059, 38.052019539855756, 0.0, 25.40781766549892, 33.54942276917068, 26.72609477991219, 4.4302102746234855, 14.04873561576963, 25.120071877360502, 27.12327704704808, 48.499452320695724, 48.499452320695724, 48.499452320695724, 48.499452320695724, 48.499452320695724, 48.499452320695724, 48.499452320695724, 48.499452320695724, 48.499452320695724, 48.499452320695724, 48.499452320695724, 48.499452320695724, 48.499452320695724, 48.499452320695724, 48.499452320695724], [60.0, 60.0, 60.0, 60.0, 60.0, 60.0, 60.0, 60.0, 60.0, 60.0, 60.0, 60.0, 60.0, 60.0, 60.0, 14.741747990191358, 43.53061475547512, 25.40781766549892, 0.0, 17.552530207068322, 37.453667924346384, 28.88842172798309, 28.74924535030995, 49.50367514992564, 42.9230745453346, 60.0, 60.0, 60.0, 60.0, 60.0, 60.0, 60.0, 60.0, 60.0, 60.0, 60.0, 60.0, 60.0, 60.0, 60.0], [50.40033834507564, 50.40033834507564, 50.40033834507564, 50.40033834507564, 50.40033834507564, 50.40033834507564, 50.40033834507564, 50.40033834507564, 50.40033834507564, 50.40033834507564, 50.40033834507564, 50.40033834507564, 50.40033834507564, 50.40033834507564, 50.40033834507564, 25.500966982547897, 32.320858021225305, 33.54942276917068, 17.552530207068322, 0.0, 31.118034653677512, 35.16467600395975, 28.64497930539351, 52.41455536661291, 38.77294420337054, 50.40033834507564, 50.40033834507564, 50.40033834507564, 50.40033834507564, 50.40033834507564, 50.40033834507564, 50.40033834507564, 50.40033834507564, 50.40033834507564, 50.40033834507564, 50.40033834507564, 50.40033834507564, 50.40033834507564, 50.40033834507564, 50.40033834507564], [23.1063041032754, 23.1063041032754, 23.1063041032754, 23.1063041032754, 23.1063041032754, 23.1063041032754, 23.1063041032754, 23.1063041032754, 23.1063041032754, 23.1063041032754, 23.1063041032754, 23.1063041032754, 23.1063041032754, 23.1063041032754, 23.1063041032754, 29.769430990725006, 12.10985948581212, 26.72609477991219, 37.453667924346384, 31.118034653677512, 0.0, 23.923643384213044, 12.721420912029126, 27.918818771601174, 8.310579226227611, 23.1063041032754, 23.1063041032754, 23.1063041032754, 23.1063041032754, 23.1063041032754, 23.1063041032754, 23.1063041032754, 23.1063041032754, 23.1063041032754, 23.1063041032754, 23.1063041032754, 23.1063041032754, 23.1063041032754, 23.1063041032754, 23.1063041032754], [44.925374637423914, 44.925374637423914, 44.925374637423914, 44.925374637423914, 44.925374637423914, 44.925374637423914, 44.925374637423914, 44.925374637423914, 44.925374637423914, 44.925374637423914, 44.925374637423914, 44.925374637423914, 44.925374637423914, 44.925374637423914, 44.925374637423914, 14.485106706464455, 35.6745804921871, 4.4302102746234855, 28.88842172798309, 35.16467600395975, 23.923643384213044, 0.0, 11.711378024725738, 20.9543177906193, 23.358058796394353, 44.925374637423914, 44.925374637423914, 44.925374637423914, 44.925374637423914, 44.925374637423914, 44.925374637423914, 44.925374637423914, 44.925374637423914, 44.925374637423914, 44.925374637423914, 44.925374637423914, 44.925374637423914, 44.925374637423914, 44.925374637423914, 44.925374637423914], [35.15915330161406, 35.15915330161406, 35.15915330161406, 35.15915330161406, 35.15915330161406, 35.15915330161406, 35.15915330161406, 35.15915330161406, 35.15915330161406, 35.15915330161406, 35.15915330161406, 35.15915330161406, 35.15915330161406, 35.15915330161406, 35.15915330161406, 18.0489607681342, 24.07424393699848, 14.04873561576963, 28.74924535030995, 28.64497930539351, 12.721420912029126, 11.711378024725738, 0.0, 23.797519430379275, 14.863281980177817, 35.15915330161406, 35.15915330161406, 35.15915330161406, 35.15915330161406, 35.15915330161406, 35.15915330161406, 35.15915330161406, 35.15915330161406, 35.15915330161406, 35.15915330161406, 35.15915330161406, 35.15915330161406, 35.15915330161406, 35.15915330161406, 35.15915330161406], [38.83456211551262, 38.83456211551262, 38.83456211551262, 38.83456211551262, 38.83456211551262, 38.83456211551262, 38.83456211551262, 38.83456211551262, 38.83456211551262, 38.83456211551262, 38.83456211551262, 38.83456211551262, 38.83456211551262, 38.83456211551262, 38.83456211551262, 35.41009641233051, 38.89875424333681, 25.120071877360502, 49.50367514992564, 52.41455536661291, 27.918818771601174, 20.9543177906193, 23.797519430379275, 0.0, 21.05422336326217, 38.83456211551262, 38.83456211551262, 38.83456211551262, 38.83456211551262, 38.83456211551262, 38.83456211551262, 38.83456211551262, 38.83456211551262, 38.83456211551262, 38.83456211551262, 38.83456211551262, 38.83456211551262, 38.83456211551262, 38.83456211551262, 38.83456211551262], [21.6478911989471, 21.6478911989471, 21.6478911989471, 21.6478911989471, 21.6478911989471, 21.6478911989471, 21.6478911989471, 21.6478911989471, 21.6478911989471, 21.6478911989471, 21.6478911989471, 21.6478911989471, 21.6478911989471, 21.6478911989471, 21.6478911989471, 32.890504036675246, 17.87826463493427, 27.12327704704808, 42.9230745453346, 38.77294420337054, 8.310579226227611, 23.358058796394353, 14.863281980177817, 21.05422336326217, 0.0, 21.6478911989471, 21.6478911989471, 21.6478911989471, 21.6478911989471, 21.6478911989471, 21.6478911989471, 21.6478911989471, 21.6478911989471, 21.6478911989471, 21.6478911989471, 21.6478911989471, 21.6478911989471, 21.6478911989471, 21.6478911989471, 21.6478911989471], [0.0, 0.0, 0.0, 0.0, 0.0, 0.0, 0.0, 0.0, 0.0, 0.0, 0.0, 0.0, 0.0, 0.0, 0.0, 52.8122401586602, 18.23768771308545, 48.499452320695724, 60.0, 50.40033834507564, 23.1063041032754, 44.925374637423914, 35.15915330161406, 38.83456211551262, 21.6478911989471, 0.0, 0.0, 0.0, 0.0, 0.0, 0.0, 0.0, 0.0, 0.0, 0.0, 0.0, 0.0, 0.0, 0.0, 0.0], [0.0, 0.0, 0.0, 0.0, 0.0, 0.0, 0.0, 0.0, 0.0, 0.0, 0.0, 0.0, 0.0, 0.0, 0.0, 52.8122401586602, 18.23768771308545, 48.499452320695724, 60.0, 50.40033834507564, 23.1063041032754, 44.925374637423914, 35.15915330161406, 38.83456211551262, 21.6478911989471, 0.0, 0.0, 0.0, 0.0, 0.0, 0.0, 0.0, 0.0, 0.0, 0.0, 0.0, 0.0, 0.0, 0.0, 0.0], [0.0, 0.0, 0.0, 0.0, 0.0, 0.0, 0.0, 0.0, 0.0, 0.0, 0.0, 0.0, 0.0, 0.0, 0.0, 52.8122401586602, 18.23768771308545, 48.499452320695724, 60.0, 50.40033834507564, 23.1063041032754, 44.925374637423914, 35.15915330161406, 38.83456211551262, 21.6478911989471, 0.0, 0.0, 0.0, 0.0, 0.0, 0.0, 0.0, 0.0, 0.0, 0.0, 0.0, 0.0, 0.0, 0.0, 0.0], [0.0, 0.0, 0.0, 0.0, 0.0, 0.0, 0.0, 0.0, 0.0, 0.0, 0.0, 0.0, 0.0, 0.0, 0.0, 52.8122401586602, 18.23768771308545, 48.499452320695724, 60.0, 50.40033834507564, 23.1063041032754, 44.925374637423914, 35.15915330161406, 38.83456211551262, 21.6478911989471, 0.0, 0.0, 0.0, 0.0, 0.0, 0.0, 0.0, 0.0, 0.0, 0.0, 0.0, 0.0, 0.0, 0.0, 0.0], [0.0, 0.0, 0.0, 0.0, 0.0, 0.0, 0.0, 0.0, 0.0, 0.0, 0.0, 0.0, 0.0, 0.0, 0.0, 52.8122401586602, 18.23768771308545, 48.499452320695724, 60.0, 50.40033834507564, 23.1063041032754, 44.925374637423914, 35.15915330161406, 38.83456211551262, 21.6478911989471, 0.0, 0.0, 0.0, 0.0, 0.0, 0.0, 0.0, 0.0, 0.0, 0.0, 0.0, 0.0, 0.0, 0.0, 0.0], [0.0, 0.0, 0.0, 0.0, 0.0, 0.0, 0.0, 0.0, 0.0, 0.0, 0.0, 0.0, 0.0, 0.0, 0.0, 52.8122401586602, 18.23768771308545, 48.499452320695724, 60.0, 50.40033834507564, 23.1063041032754, 44.925374637423914, 35.15915330161406, 38.83456211551262, 21.6478911989471, 0.0, 0.0, 0.0, 0.0, 0.0, 0.0, 0.0, 0.0, 0.0, 0.0, 0.0, 0.0, 0.0, 0.0, 0.0], [0.0, 0.0, 0.0, 0.0, 0.0, 0.0, 0.0, 0.0, 0.0, 0.0, 0.0, 0.0, 0.0, 0.0, 0.0, 52.8122401586602, 18.23768771308545, 48.499452320695724, 60.0, 50.40033834507564, 23.1063041032754, 44.925374637423914, 35.15915330161406, 38.83456211551262, 21.6478911989471, 0.0, 0.0, 0.0, 0.0, 0.0, 0.0, 0.0, 0.0, 0.0, 0.0, 0.0, 0.0, 0.0, 0.0, 0.0], [0.0, 0.0, 0.0, 0.0, 0.0, 0.0, 0.0, 0.0, 0.0, 0.0, 0.0, 0.0, 0.0, 0.0, 0.0, 52.8122401586602, 18.23768771308545, 48.499452320695724, 60.0, 50.40033834507564, 23.1063041032754, 44.925374637423914, 35.15915330161406, 38.83456211551262, 21.6478911989471, 0.0, 0.0, 0.0, 0.0, 0.0, 0.0, 0.0, 0.0, 0.0, 0.0, 0.0, 0.0, 0.0, 0.0, 0.0], [0.0, 0.0, 0.0, 0.0, 0.0, 0.0, 0.0, 0.0, 0.0, 0.0, 0.0, 0.0, 0.0, 0.0, 0.0, 52.8122401586602, 18.23768771308545, 48.499452320695724, 60.0, 50.40033834507564, 23.1063041032754, 44.925374637423914, 35.15915330161406, 38.83456211551262, 21.6478911989471, 0.0, 0.0, 0.0, 0.0, 0.0, 0.0, 0.0, 0.0, 0.0, 0.0, 0.0, 0.0, 0.0, 0.0, 0.0], [0.0, 0.0, 0.0, 0.0, 0.0, 0.0, 0.0, 0.0, 0.0, 0.0, 0.0, 0.0, 0.0, 0.0, 0.0, 52.8122401586602, 18.23768771308545, 48.499452320695724, 60.0, 50.40033834507564, 23.1063041032754, 44.925374637423914, 35.15915330161406, 38.83456211551262, 21.6478911989471, 0.0, 0.0, 0.0, 0.0, 0.0, 0.0, 0.0, 0.0, 0.0, 0.0, 0.0, 0.0, 0.0, 0.0, 0.0], [0.0, 0.0, 0.0, 0.0, 0.0, 0.0, 0.0, 0.0, 0.0, 0.0, 0.0, 0.0, 0.0, 0.0, 0.0, 52.8122401586602, 18.23768771308545, 48.499452320695724, 60.0, 50.40033834507564, 23.1063041032754, 44.925374637423914, 35.15915330161406, 38.83456211551262, 21.6478911989471, 0.0, 0.0, 0.0, 0.0, 0.0, 0.0, 0.0, 0.0, 0.0, 0.0, 0.0, 0.0, 0.0, 0.0, 0.0], [0.0, 0.0, 0.0, 0.0, 0.0, 0.0, 0.0, 0.0, 0.0, 0.0, 0.0, 0.0, 0.0, 0.0, 0.0, 52.8122401586602, 18.23768771308545, 48.499452320695724, 60.0, 50.40033834507564, 23.1063041032754, 44.925374637423914, 35.15915330161406, 38.83456211551262, 21.6478911989471, 0.0, 0.0, 0.0, 0.0, 0.0, 0.0, 0.0, 0.0, 0.0, 0.0, 0.0, 0.0, 0.0, 0.0, 0.0], [0.0, 0.0, 0.0, 0.0, 0.0, 0.0, 0.0, 0.0, 0.0, 0.0, 0.0, 0.0, 0.0, 0.0, 0.0, 52.8122401586602, 18.23768771308545, 48.499452320695724, 60.0, 50.40033834507564, 23.1063041032754, 44.925374637423914, 35.15915330161406, 38.83456211551262, 21.6478911989471, 0.0, 0.0, 0.0, 0.0, 0.0, 0.0, 0.0, 0.0, 0.0, 0.0, 0.0, 0.0, 0.0, 0.0, 0.0], [0.0, 0.0, 0.0, 0.0, 0.0, 0.0, 0.0, 0.0, 0.0, 0.0, 0.0, 0.0, 0.0, 0.0, 0.0, 52.8122401586602, 18.23768771308545, 48.499452320695724, 60.0, 50.40033834507564, 23.1063041032754, 44.925374637423914, 35.15915330161406, 38.83456211551262, 21.6478911989471, 0.0, 0.0, 0.0, 0.0, 0.0, 0.0, 0.0, 0.0, 0.0, 0.0, 0.0, 0.0, 0.0, 0.0, 0.0], [0.0, 0.0, 0.0, 0.0, 0.0, 0.0, 0.0, 0.0, 0.0, 0.0, 0.0, 0.0, 0.0, 0.0, 0.0, 52.8122401586602, 18.23768771308545, 48.499452320695724, 60.0, 50.40033834507564, 23.1063041032754, 44.925374637423914, 35.15915330161406, 38.83456211551262, 21.6478911989471, 0.0, 0.0, 0.0, 0.0, 0.0, 0.0, 0.0, 0.0, 0.0, 0.0, 0.0, 0.0, 0.0, 0.0, 0.0]];
